275 5
10 10 10 10 10 

0 0 0 0 0 0 4 2 14 26 38 
0 0 0 0 0 0 2 3 5 
10 0 0 0 0 1 2 12 4 
9 0 0 0 0 5 1 6 
9 0 0 0 0 3 4 12 11 8 216 
5 0 0 0 0 3 1 7 
3 0 0 0 0 2 2 11 8 
9 0 0 0 0 1 1 9 
1 0 0 0 0 3 1 10 
6 0 0 0 0 4 1 13 
9 0 0 0 0 1 1 13 
6 0 0 0 0 2 1 13 
0 0 0 0 0 0 1 50 
0 0 0 0 0 0 1 15 
8 0 0 0 1 0 1 16 
3 0 0 0 1 0 2 17 120 
9 0 0 0 5 0 1 18 
5 0 0 0 2 0 2 20 19 
4 0 0 0 4 0 2 22 21 
9 0 0 0 3 0 2 22 21 
6 0 0 0 2 0 2 24 23 
4 0 0 0 2 0 2 24 23 
7 0 0 0 3 0 1 25 
6 0 0 0 2 0 1 25 
0 0 0 0 0 0 1 50 
0 0 0 0 0 0 1 27 
1 0 0 0 1 0 2 30 28 
8 0 0 0 4 0 1 29 
3 0 0 0 1 0 3 34 31 53 
6 0 0 0 2 0 2 36 31 
2 0 0 0 1 0 1 32 
6 0 0 0 5 0 1 33 
10 0 0 0 2 0 1 35 
3 0 0 0 3 0 1 35 
3 0 0 0 4 0 1 37 
8 0 0 0 2 0 1 37 
0 0 0 0 0 0 1 50 
0 0 0 0 0 0 1 39 
5 0 0 0 0 1 3 44 41 40 
2 0 0 0 0 2 1 42 
2 0 0 0 0 2 1 42 
9 0 0 0 0 6 1 43 
9 0 0 0 0 3 1 45 
10 0 0 0 0 1 1 45 
1 0 0 0 0 3 2 46 89 
8 0 0 0 0 2 2 48 47 
10 0 0 0 0 1 1 49 
3 0 0 0 0 4 1 49 
0 0 0 0 0 0 1 50 
0 0 0 0 0 0 4 51 63 75 87 
0 0 0 0 0 0 2 52 56 
5 0 1 0 0 0 2 61 53 
3 0 3 0 0 0 1 54 
1 0 2 0 0 0 1 55 
6 0 3 0 0 0 3 60 57 272 
8 0 1 0 0 0 2 60 57 
8 0 2 0 0 0 1 58 
7 0 3 0 0 0 1 59 
3 0 3 0 0 0 1 62 
3 0 1 0 0 0 1 62 
2 0 6 0 0 0 1 62 
0 0 0 0 0 0 1 99 
0 0 0 0 0 0 1 64 
8 1 0 0 0 0 3 73 70 65 
5 2 0 0 0 0 3 72 66 114 
2 3 0 0 0 0 1 67 
3 6 0 0 0 0 1 68 
3 2 0 0 0 0 1 69 
5 1 0 0 0 0 1 71 
1 3 0 0 0 0 1 71 
6 2 0 0 0 0 1 74 
3 3 0 0 0 0 1 74 
3 2 0 0 0 0 1 74 
0 0 0 0 0 0 1 99 
0 0 0 0 0 0 3 76 79 235 
3 0 0 0 1 0 2 85 77 
8 0 0 0 3 0 1 78 
3 0 0 0 4 0 2 84 80 
5 0 0 0 1 0 2 84 82 
2 0 0 0 2 0 1 81 
6 0 0 0 4 0 1 82 
8 0 0 0 2 0 1 83 
9 0 0 0 3 0 1 86 
8 0 0 0 2 0 1 86 
4 0 0 0 3 0 1 86 
0 0 0 0 0 0 1 99 
0 0 0 0 0 0 2 88 96 
8 0 0 1 0 0 2 92 89 
2 0 0 2 0 0 2 95 90 
2 0 0 1 0 0 2 91 219 
2 0 0 3 0 0 1 93 
5 0 0 3 0 0 1 93 
7 0 0 2 0 0 1 94 
4 0 0 3 0 0 1 97 
9 0 0 2 0 0 1 97 
8 0 0 3 0 0 1 97 
8 0 0 5 0 0 1 98 
0 0 0 0 0 0 1 99 
0 0 0 0 0 0 4 100 112 124 136 
0 0 0 0 0 0 2 101 104 
10 1 0 0 0 0 1 102 
3 3 0 0 0 0 2 107 103 
3 2 0 0 0 0 1 105 
5 2 0 0 0 0 1 105 
8 2 0 0 0 0 1 106 
8 2 0 0 0 0 3 110 108 115 
8 1 0 0 0 0 2 110 108 
10 4 0 0 0 0 1 109 
4 6 0 0 0 0 1 111 
6 2 0 0 0 0 1 111 
0 0 0 0 0 0 1 148 
0 0 0 0 0 0 1 113 
8 0 0 0 1 0 3 118 116 114 
7 0 0 0 2 0 1 115 
1 0 0 0 3 0 1 117 
7 0 0 0 1 0 1 117 
1 0 0 0 3 0 2 119 234 
10 0 0 0 2 0 1 119 
3 0 0 0 2 0 1 120 
10 0 0 0 4 0 2 122 121 
9 0 0 0 3 0 1 123 
9 0 0 0 4 0 1 123 
0 0 0 0 0 0 1 148 
0 0 0 0 0 0 3 125 128 134 
10 0 0 0 1 0 1 126 
2 0 0 0 2 0 1 127 
2 0 0 0 2 0 1 129 
7 0 0 0 3 0 2 129 252 
3 0 0 0 2 0 1 130 
7 0 0 0 3 0 2 133 131 
4 0 0 0 3 0 1 132 
4 0 0 0 2 0 1 135 
4 0 0 0 6 0 1 135 
10 0 0 0 1 0 1 135 
0 0 0 0 0 0 1 148 
0 0 0 0 0 0 2 137 141 
9 0 0 1 0 0 2 140 138 
5 0 0 4 0 0 1 139 
4 0 0 4 0 0 2 145 142 
8 0 0 4 0 0 2 145 144 
3 0 0 3 0 0 2 145 144 
3 0 0 1 0 0 1 143 
7 0 0 2 0 0 1 144 
7 0 0 3 0 0 2 146 220 
2 0 0 2 0 0 1 146 
5 0 0 1 0 0 1 147 
0 0 0 0 0 0 1 148 
0 0 0 0 0 0 4 149 171 183 205 
0 0 0 0 0 0 2 150 153 
2 0 0 0 1 1 1 151 
2 0 0 0 4 1 2 160 152 
1 0 0 0 1 1 3 167 157 154 
1 0 0 0 2 2 3 167 157 154 
6 0 0 0 2 1 1 155 
6 0 0 0 3 5 1 156 
7 0 0 0 3 4 1 158 
8 0 0 0 3 4 1 158 
3 0 0 0 2 1 1 159 
6 0 0 0 3 6 2 161 267 
2 0 0 0 2 3 1 161 
9 0 0 0 4 2 1 162 
1 0 0 0 2 2 1 163 
2 0 0 0 2 5 2 169 164 
10 0 0 0 4 3 1 165 
9 0 0 0 4 2 1 166 
3 0 0 0 1 1 1 168 
6 0 0 0 1 2 1 168 
2 0 0 0 4 2 1 170 
4 0 0 0 2 2 1 170 
0 0 0 0 0 0 1 275 
0 0 0 0 0 0 2 172 175 
8 0 1 0 0 0 2 177 173 
4 0 4 0 0 0 1 174 
5 0 6 0 0 0 2 178 176 
5 0 2 0 0 0 2 179 177 
1 0 2 0 0 0 1 179 
4 0 3 0 0 0 1 178 
4 0 3 0 0 0 1 180 
1 0 1 0 0 0 2 180 261 
4 0 2 0 0 0 1 181 
1 0 1 0 0 0 1 182 
0 0 0 0 0 0 4 227 239 251 263 
0 0 0 0 0 0 2 184 185 
2 0 0 1 0 1 2 191 187 
10 0 0 2 0 1 1 186 
10 0 0 2 0 5 2 191 189 
7 0 0 2 0 1 1 188 
6 0 0 4 0 1 1 189 
10 0 0 4 0 2 1 190 
8 0 0 4 0 4 1 192 
8 0 0 3 0 3 1 192 
5 0 0 2 0 1 2 196 193 
2 0 0 4 0 1 1 194 
8 0 0 4 0 3 1 195 
2 0 0 2 0 2 1 197 
8 0 0 1 0 4 1 197 
1 0 0 1 0 3 2 203 198 
3 0 0 2 0 4 1 199 
5 0 0 2 0 3 1 200 
2 0 0 2 0 4 1 201 
6 0 0 1 0 3 1 202 
8 0 0 4 0 1 2 204 232 
7 0 0 3 0 3 1 204 
0 0 0 0 0 0 1 275 
0 0 0 0 0 0 3 206 216 225 
2 0 1 1 0 0 1 207 
9 0 1 2 0 0 1 208 
6 0 2 3 0 0 2 223 209 
8 0 1 3 0 0 1 210 
5 0 6 4 0 0 1 211 
10 0 3 2 0 0 1 212 
8 0 5 4 0 0 2 222 213 
9 0 2 2 0 0 2 214 266 
7 0 2 3 0 0 1 215 
8 0 2 4 0 0 1 217 
6 0 1 2 0 0 2 224 219 
7 0 2 1 0 0 1 218 
1 0 2 1 0 0 1 219 
1 0 4 2 0 0 1 220 
5 0 3 1 0 0 1 221 
4 0 7 2 0 0 1 226 
9 0 2 1 0 0 1 226 
5 0 1 6 0 0 1 226 
6 0 1 2 0 0 1 226 
3 0 2 4 0 0 1 226 
0 0 0 0 0 0 1 275 
0 0 0 0 0 0 3 228 229 231 
9 0 0 0 0 1 1 230 
2 0 0 0 0 4 1 230 
1 0 0 0 0 3 2 235 232 
2 0 0 0 0 2 2 235 234 
8 0 0 0 0 3 1 233 
7 0 0 0 0 1 1 234 
8 0 0 0 0 3 1 236 
5 0 0 0 0 3 1 236 
7 0 0 0 0 3 2 237 240 
6 0 0 0 0 2 1 238 
0 0 0 0 0 0 1 275 
0 0 0 0 0 0 2 240 242 
2 0 0 0 0 1 3 245 244 241 
8 0 0 0 0 1 1 243 
9 0 0 0 0 1 1 243 
10 0 0 0 0 5 1 246 
6 0 0 0 0 2 2 246 260 
6 0 0 0 0 1 1 246 
10 0 0 0 0 4 1 247 
4 0 0 0 0 3 1 248 
10 0 0 0 0 3 1 249 
7 0 0 0 0 4 1 250 
0 0 0 0 0 0 1 275 
0 0 0 0 0 0 2 252 254 
5 0 0 1 0 0 1 253 
9 0 0 3 0 0 2 256 255 
3 0 0 3 0 0 2 256 255 
7 0 0 1 0 0 2 257 271 
1 0 0 2 0 0 1 257 
3 0 0 4 0 0 2 259 258 
1 0 0 4 0 0 1 260 
2 0 0 3 0 0 1 260 
1 0 0 1 0 0 1 261 
2 0 0 3 0 0 1 262 
0 0 0 0 0 0 1 275 
0 0 0 0 0 0 1 264 
9 0 1 0 0 0 2 268 265 
5 0 1 0 0 0 1 266 
10 0 5 0 0 0 2 269 267 
10 0 2 0 0 0 1 270 
1 0 2 0 0 0 1 269 
5 0 4 0 0 0 2 273 271 
1 0 4 0 0 0 2 273 271 
9 0 1 0 0 0 1 272 
1 0 1 0 0 0 1 274 
2 0 4 0 0 0 1 274 
0 0 0 0 0 0 1 275 
0 0 0 0 0 0 0 
